0 4897.19
1 4843.27
2 4843.27
3 4843.27
4 4843.27
5 4782.65
6 4782.65
7 4758.07
8 4758.07
9 4758.07
10 4758.07
11 4758.07
12 4758.07
13 4758.07
14 4758.07
15 4758.07
16 4758.07
17 4758.07
18 4758.07
19 4758.07
20 4753.60
21 4753.60
22 4753.60
23 4753.60
24 4753.60
25 4753.60
26 4753.60
27 4701.57
28 4701.57
29 4701.57
30 4701.57
31 4701.57
32 4654.38
33 4654.38
34 4654.38
35 4654.38
36 4654.38
37 4654.38
38 4654.38
39 4654.38
40 4654.38
41 4654.38
42 4654.38
43 4654.38
44 4654.38
45 4636.22
46 4636.22
47 4636.22
48 4636.22
49 4636.22
50 4636.22
51 4636.22
52 4636.22
53 4607.85
54 4607.85
55 4607.85
56 4607.85
57 4607.85
58 4607.85
59 4607.85
60 4607.85
61 4607.85
62 4607.85
63 4607.85
64 4607.85
65 4607.85
66 4607.85
67 4607.85
68 4607.85
69 4607.85
70 4607.85
71 4607.85
72 4607.85
73 4607.85
74 4607.85
75 4603.07
76 4603.07
77 4603.07
78 4603.07
79 4603.07
80 4603.07
81 4603.07
82 4603.07
83 4603.07
84 4603.07
85 4603.07
86 4603.07
87 4603.07
88 4603.07
89 4603.07
90 4603.07
91 4603.07
92 4603.07
93 4603.07
94 4603.07
95 4603.07
96 4603.07
97 4603.07
98 4603.07
99 4603.07
100 4603.07
101 4603.07
102 4603.07
103 4603.07
104 4603.07
105 4603.07
106 4603.07
107 4603.07
108 4603.07
109 4603.07
110 4603.07
111 4603.07
112 4603.07
113 4603.07
114 4603.07
115 4603.07
116 4603.07
117 4603.07
118 4603.07
119 4603.07
120 4603.07
121 4603.07
122 4603.07
123 4603.07
124 4603.07
125 4603.07
126 4603.07
127 4603.07
128 4603.07
129 4603.07
130 4603.07
131 4603.07
132 4603.07
133 4603.07
134 4603.07
135 4603.07
136 4603.07
137 4603.07
138 4603.07
139 4603.07
140 4603.07
141 4603.07
142 4603.07
143 4603.07
144 4603.07
145 4603.07
146 4603.07
147 4603.07
148 4603.07
149 4603.07
150 4603.07
151 4603.07
152 4603.07
153 4603.07
154 4603.07
155 4603.07
156 4603.07
157 4603.07
158 4603.07
159 4603.07
160 4603.07
161 4603.07
162 4603.07
163 4603.07
164 4603.07
165 4603.07
166 4603.07
167 4603.07
168 4603.07
169 4603.07
170 4603.07
171 4603.07
172 4603.07
173 4603.07
174 4603.07
175 4603.07
176 4603.07
177 4602.53
178 4602.53
179 4602.53
180 4602.53
181 4602.53
182 4602.53
183 4602.53
184 4593.78
185 4593.78
186 4593.78
187 4593.78
188 4593.78
189 4593.78
190 4593.78
191 4593.78
192 4593.78
193 4593.78
194 4593.78
195 4593.78
196 4593.78
197 4593.78
198 4593.78
199 4593.78
200 4593.78
201 4593.78
202 4593.78
203 4593.78
204 4593.78
205 4593.78
206 4593.78
207 4593.78
208 4593.78
209 4593.78
210 4593.78
211 4593.78
212 4593.78
213 4593.78
214 4593.78
215 4593.78
216 4593.78
217 4593.78
218 4591.86
219 4591.86
220 4591.86
221 4591.86
222 4591.86
223 4591.86
224 4591.86
225 4591.86
226 4591.86
227 4591.86
228 4591.86
229 4591.86
230 4591.86
231 4591.86
232 4591.86
233 4591.86
234 4591.86
235 4569.45
236 4569.45
237 4569.45
238 4569.45
239 4569.45
240 4569.45
241 4569.45
242 4569.45
243 4569.45
244 4569.45
245 4569.45
246 4569.45
247 4569.45
248 4569.45
249 4569.45
250 4569.45
251 4569.45
252 4569.45
253 4569.45
254 4569.45
255 4569.45
256 4569.45
257 4569.45
258 4569.45
259 4569.45
260 4569.45
261 4569.45
262 4569.45
263 4569.45
264 4569.45
265 4569.45
266 4569.45
267 4569.45
268 4569.45
269 4569.45
270 4569.45
271 4569.45
272 4569.45
273 4569.45
274 4569.45
275 4569.45
276 4569.45
277 4569.45
278 4569.45
279 4569.45
280 4569.45
281 4569.45
282 4569.45
283 4569.45
284 4569.45
285 4569.45
286 4569.45
287 4569.45
288 4569.45
289 4569.45
290 4569.45
291 4569.45
292 4569.45
293 4569.45
294 4569.45
295 4569.45
296 4569.45
297 4569.45
298 4569.45
299 4569.45
300 4569.45
301 4569.45
302 4569.45
303 4569.45
304 4569.45
305 4569.45
306 4569.45
307 4569.45
308 4569.45
309 4569.45
310 4569.45
311 4569.45
312 4569.45
313 4569.45
314 4569.45
315 4569.45
316 4569.45
317 4569.45
318 4569.45
319 4569.45
320 4569.45
321 4569.45
322 4569.45
323 4569.45
324 4569.45
325 4569.45
326 4569.45
327 4569.45
328 4569.45
329 4569.45
330 4569.45
331 4569.45
332 4569.45
333 4569.45
334 4569.45
335 4569.45
336 4569.45
337 4569.45
338 4569.45
339 4569.45
340 4569.45
341 4569.45
342 4569.45
343 4569.45
344 4569.45
345 4569.45
346 4569.45
347 4569.45
348 4569.45
349 4569.45
350 4569.45
351 4569.45
352 4569.45
353 4569.45
354 4569.45
355 4569.45
356 4569.45
357 4569.45
358 4569.45
359 4569.45
360 4569.45
361 4569.45
362 4569.45
363 4569.45
364 4569.45
365 4569.45
366 4569.45
367 4569.45
368 4569.45
369 4569.45
370 4569.45
371 4569.45
372 4569.45
373 4569.45
374 4569.45
375 4569.45
376 4569.45
377 4569.45
378 4569.45
379 4569.45
380 4569.45
381 4569.45
382 4569.45
383 4569.45
384 4569.45
385 4569.45
386 4569.45
387 4569.45
388 4569.45
389 4569.45
390 4569.45
391 4569.45
392 4569.45
393 4569.45
394 4569.45
395 4569.45
396 4569.45
397 4569.45
398 4569.45
399 4569.45
400 4569.45
401 4569.45
402 4569.45
403 4569.45
404 4569.45
405 4569.45
406 4569.45
407 4569.45
408 4569.45
409 4569.45
410 4569.45
411 4569.45
412 4569.45
413 4569.45
414 4569.45
415 4569.45
416 4569.45
417 4569.45
418 4569.45
419 4569.45
420 4569.45
421 4569.45
422 4569.45
423 4569.45
424 4569.45
425 4569.45
426 4569.45
427 4569.45
428 4569.45
429 4569.45
430 4569.45
431 4569.45
432 4569.45
433 4569.45
434 4569.45
435 4569.45
436 4569.45
437 4569.45
438 4569.45
439 4569.45
440 4569.45
441 4569.45
442 4569.45
443 4569.45
444 4569.45
445 4569.45
446 4569.45
447 4569.45
448 4569.45
449 4569.45
450 4569.45
451 4569.45
452 4569.45
453 4569.45
454 4569.45
455 4569.45
456 4569.45
457 4569.45
458 4569.45
459 4569.45
460 4569.45
461 4569.45
462 4569.45
463 4569.45
464 4569.45
465 4569.45
466 4569.45
467 4569.45
468 4569.45
469 4569.45
470 4569.45
471 4569.45
472 4569.45
473 4569.45
474 4569.45
475 4569.45
476 4569.45
477 4569.45
478 4569.45
479 4569.45
480 4569.45
481 4569.45
482 4569.45
483 4569.45
484 4569.45
485 4569.45
486 4569.45
487 4569.45
488 4569.45
489 4569.45
490 4569.45
491 4569.45
492 4569.45
493 4569.45
494 4569.45
495 4569.45
496 4569.45
497 4569.45
498 4569.45
499 4569.45
2 3 9 5 0 0 